language Essence 1.3

letting bot_end be [15, 149, 44, 143, 2, 37, 16, 107, 5, 57, 114, 41, 14, 128, 9, 50; int(1..16)]
letting bot_start be [6, 11, 141, 30, 120, 144, 69, 29, 17, 31, 119, 25, 78, 108, 109, 143; int(1..16)]
letting bots be 16
letting buffer_col be 2
letting buffer_row be 2
letting corridor_size be 1
letting n_shelves_col be 7
letting n_shelves_row be 1
letting shelf_col_size be 2
letting shelf_row_size be 1
